69038893282399635305012,3,1,2,07,10,1,2,04,12,1,2,013,4,1,2,05,8,1,2,05,13,1,2,08,6,1,2,04,6,1,2,01,12,1,2,09,8,1,2,01,14,1,2,07,12,1,2,011,4,1,2,011,3,1,2,012,6,1,2,04,15,1,2,09,15,1,2,010,7,1,2,01,5,1,2,05,2,1,2,013,2,1,2,05,15,1,2,013,6,1,2,01,1,1,2,09,8,1,2,014,3,1,2,02,8,1,2,010,15,1,2,06,4,1,2,013,15,1,2,09,15,1,2,012,5,1,2,05,3,1,2,03,9,1,2,04,14,1,2,013,1,1,2,015,6,1,2,07,1,1,2,09,15,1,2,04,14,1,2,011,8,1,2,012,12,1,2,013,12,1,2,03,12,1,2,03,2,1,2,04,10,1,2,014,14,1,2,012,11,1,2,014,3,1,2,05,14,1,2,0